unsat
(forall ((A (_ BitVec 23))
         (B (_ BitVec 1))
         (C (_ BitVec 1))
         (D (_ BitVec 4))
         (E (_ BitVec 30))
         (F (_ BitVec 4))
         (G (_ BitVec 1))
         (H (_ BitVec 1))
         (I (_ BitVec 1))
         (J (_ BitVec 1))
         (K (_ BitVec 32))
         (L (_ BitVec 1))
         (M (_ BitVec 1))
         (N (_ BitVec 32))
         (O (_ BitVec 1))
         (P (_ BitVec 1))
         (Q (_ BitVec 1))
         (R (_ BitVec 1))
         (S (_ BitVec 1))
         (T (_ BitVec 1))
         (U (_ BitVec 1))
         (V (_ BitVec 1))
         (W (_ BitVec 32))
         (X (_ BitVec 32))
         (Y (_ BitVec 1))
         (Z (_ BitVec 32))
         (A1 (_ BitVec 1))
         (B1 (_ BitVec 6))
         (C1 (_ BitVec 32))
         (D1 (_ BitVec 32))
         (E1 (_ BitVec 30))
         (F1 (_ BitVec 30))
         (G1 (_ BitVec 1))
         (H1 (_ BitVec 32))
         (I1 (_ BitVec 32))
         (J1 (_ BitVec 1))
         (K1 (_ BitVec 32))
         (L1 (_ BitVec 32))
         (M1 (_ BitVec 1))
         (N1 (_ BitVec 32))
         (O1 (_ BitVec 1))
         (P1 (_ BitVec 5))
         (Q1 (_ BitVec 1))
         (R1 (_ BitVec 1))
         (S1 (_ BitVec 1))
         (T1 (_ BitVec 15))
         (U1 (_ BitVec 8))
         (V1 (_ BitVec 1))
         (W1 (_ BitVec 7))
         (X1 (_ BitVec 1))
         (Y1 (_ BitVec 1))
         (Z1 (_ BitVec 1))
         (A2 (_ BitVec 1))
         (B2 (_ BitVec 32))
         (C2 (_ BitVec 5))
         (D2 (_ BitVec 32))
         (E2 (_ BitVec 1))
         (F2 (_ BitVec 1))
         (G2 (_ BitVec 8))
         (H2 (_ BitVec 1))
         (I2 (_ BitVec 8))
         (J2 (_ BitVec 1))
         (K2 (_ BitVec 1))
         (L2 (_ BitVec 1))
         (M2 (_ BitVec 1))
         (N2 (_ BitVec 1))
         (O2 (_ BitVec 5))
         (P2 (_ BitVec 1))
         (Q2 (_ BitVec 1))
         (R2 (_ BitVec 1))
         (S2 (_ BitVec 4))
         (T2 (_ BitVec 1))
         (U2 (_ BitVec 7))
         (V2 (_ BitVec 1))
         (W2 (_ BitVec 1))
         (X2 (_ BitVec 1))
         (Y2 (_ BitVec 1))
         (Z2 (_ BitVec 1))
         (A3 (_ BitVec 5))
         (B3 (_ BitVec 1))
         (C3 (_ BitVec 64))
         (D3 (_ BitVec 2))
         (E3 (_ BitVec 30))
         (F3 (_ BitVec 5))
         (G3 (_ BitVec 23))
         (H3 (_ BitVec 32))
         (I3 (_ BitVec 1))
         (J3 (_ BitVec 1))
         (K3 (_ BitVec 5))
         (L3 (_ BitVec 1))
         (M3 (_ BitVec 1))
         (N3 (_ BitVec 1))
         (O3 (_ BitVec 1))
         (P3 (_ BitVec 1))
         (Q3 (_ BitVec 1))
         (R3 (_ BitVec 7))
         (S3 (_ BitVec 1))
         (T3 (_ BitVec 1))
         (U3 (_ BitVec 1))
         (V3 (_ BitVec 1))
         (W3 (_ BitVec 1))
         (X3 (_ BitVec 1))
         (Y3 (_ BitVec 1))
         (Z3 (_ BitVec 1))
         (A4 (_ BitVec 7))
         (B4 (_ BitVec 1))
         (C4 (_ BitVec 1))
         (D4 (_ BitVec 1))
         (E4 (_ BitVec 4))
         (F4 (_ BitVec 32))
         (G4 (_ BitVec 1))
         (H4 (_ BitVec 1))
         (I4 (_ BitVec 1))
         (J4 (_ BitVec 1))
         (K4 (_ BitVec 8))
         (L4 (_ BitVec 4))
         (M4 (_ BitVec 1))
         (N4 (_ BitVec 1))
         (O4 (_ BitVec 1))
         (P4 (_ BitVec 6))
         (Q4 (_ BitVec 1))
         (R4 (_ BitVec 1))
         (S4 (_ BitVec 1))
         (T4 (_ BitVec 1))
         (U4 (_ BitVec 8))
         (V4 (_ BitVec 1))
         (W4 (_ BitVec 4))
         (X4 (_ BitVec 5))
         (Y4 (_ BitVec 1))
         (Z4 (_ BitVec 1))
         (A5 (_ BitVec 8))
         (B5 (_ BitVec 1))
         (C5 (_ BitVec 4))
         (D5 (_ BitVec 1))
         (E5 (_ BitVec 1))
         (F5 (_ BitVec 5))
         (G5 (_ BitVec 1))
         (H5 (_ BitVec 1))
         (I5 (_ BitVec 1))
         (J5 (_ BitVec 1))
         (K5 (_ BitVec 32))
         (L5 (_ BitVec 1))
         (M5 (_ BitVec 1))
         (N5 (_ BitVec 1))
         (O5 (_ BitVec 1))
         (P5 (_ BitVec 1))
         (Q5 (_ BitVec 1))
         (R5 (_ BitVec 1))
         (S5 (_ BitVec 1))
         (T5 (_ BitVec 32))
         (U5 (_ BitVec 1))
         (V5 (_ BitVec 32))
         (W5 (_ BitVec 4))
         (X5 (_ BitVec 1))
         (Y5 (_ BitVec 7))
         (Z5 (_ BitVec 1))
         (A6 (_ BitVec 1))
         (B6 (_ BitVec 4))
         (C6 (_ BitVec 32))
         (D6 (_ BitVec 1))
         (E6 (_ BitVec 1))
         (F6 (_ BitVec 1))
         (G6 (_ BitVec 1))
         (H6 (_ BitVec 1))
         (I6 (_ BitVec 1))
         (J6 (_ BitVec 1))
         (K6 (_ BitVec 1))
         (L6 (_ BitVec 1))
         (M6 (_ BitVec 32))
         (N6 (Array (_ BitVec 5) (_ BitVec 32)))
         (O6 (_ BitVec 1))
         (P6 (_ BitVec 1))
         (Q6 (_ BitVec 1))
         (R6 (_ BitVec 1))
         (S6 (_ BitVec 1))
         (T6 (_ BitVec 6))
         (U6 (_ BitVec 1))
         (V6 (_ BitVec 32))
         (W6 (_ BitVec 32))
         (X6 (_ BitVec 1))
         (Y6 (_ BitVec 1))
         (Z6 (_ BitVec 1))
         (A7 (_ BitVec 4))
         (B7 (_ BitVec 1))
         (C7 (_ BitVec 2))
         (D7 (_ BitVec 1))
         (E7 (_ BitVec 1))
         (F7 (_ BitVec 1))
         (G7 (_ BitVec 1))
         (H7 (_ BitVec 1))
         (I7 (_ BitVec 1))
         (J7 (_ BitVec 1))
         (K7 (_ BitVec 6))
         (L7 (Array (_ BitVec 4) (_ BitVec 8)))
         (M7 (_ BitVec 4))
         (N7 (_ BitVec 4))
         (O7 (_ BitVec 1))
         (P7 (_ BitVec 1))
         (Q7 (_ BitVec 3))
         (R7 (_ BitVec 5))
         (S7 (_ BitVec 1))
         (T7 (_ BitVec 1))
         (U7 (_ BitVec 1))
         (V7 (_ BitVec 2))
         (W7 (_ BitVec 2))
         (X7 (_ BitVec 1))
         (Y7 (_ BitVec 1))
         (Z7 (_ BitVec 1))
         (A8 (_ BitVec 1))
         (B8 (_ BitVec 1))
         (C8 (_ BitVec 2))
         (D8 (_ BitVec 1))
         (E8 (_ BitVec 32))
         (F8 (_ BitVec 1))
         (G8 (_ BitVec 7))
         (H8 (_ BitVec 1))
         (I8 (_ BitVec 1))
         (J8 (_ BitVec 5))
         (K8 (_ BitVec 32))
         (L8 (_ BitVec 1))
         (M8 (_ BitVec 1))
         (N8 (_ BitVec 1))
         (O8 (_ BitVec 32))
         (P8 (_ BitVec 1))
         (Q8 (_ BitVec 1))
         (R8 (_ BitVec 1)))
  (! (let ((a!1 (bvadd #b000000001 (concat #b0 (bvadd #x01 (bvmul #xff A5) G2))))
           (a!3 (or (not ((_ bit2bool 6) U2))
                    (not (= ((_ extract 0 0) U2) #b1))))
           (a!4 (or (not (= ((_ extract 4 0) U2) #b01111))
                    (= ((_ extract 4 0) G8) #b01111)))
           (a!5 (or ((_ bit2bool 5) W1)
                    (not ((_ bit2bool 0) B3))
                    (not (= ((_ extract 4 0) W1) #b01111))))
           (a!6 (or (not ((_ bit2bool 6) W1))
                    (not (= ((_ extract 0 0) W1) #b1))))
           (a!7 (or (= Z4 #b0)
                    (not (= R5 #b1))
                    (not (= Z5 #b1))
                    (not (= ((_ extract 31 31) H1) #b1))))
           (a!8 (= ((_ extract 3 1) (bvadd #x1 (bvmul #xf M7) N7)) #b000))
           (a!9 (or (= P3 #b0)
                    (not (= G7 #b1))
                    (not (= W2 #b0))
                    (not ((_ bit2bool 0) V1))
                    (not (= ((_ extract 0 0) D3) #b1))))
           (a!10 (bvadd #b000000001
                        (concat #b0 (bvadd #xff (bvmul #xff A5) G2))))
           (a!12 (= (bvadd N7 (bvmul #xf M7))
                    (bvadd ((_ extract 3 0) G2)
                           (bvmul #xf ((_ extract 3 0) A5)))))
           (a!13 (= ((_ extract 7 4) (bvadd #xff G2 (bvmul #xff A5))) #x0))
           (a!14 (= (bvadd N7 (bvmul #xf M7))
                    (bvadd #x1
                           ((_ extract 3 0) G2)
                           (bvmul #xf ((_ extract 3 0) A5)))))
           (a!15 (= ((_ extract 7 4) (bvadd G2 (bvmul #xff A5))) #x0))
           (a!16 (and (not (= T2 #b1)) (not (= ((_ extract 31 31) H1) #b0))))
           (a!18 (bvadd (concat #b0 (bvadd (bvmul #xff A5) G2))
                        (concat #x00 (bvor B5 F8)))))
     (let ((a!2 (= (concat #b00000 (bvadd #x1 (bvmul #xf M7) N7)) a!1))
           (a!11 (= (concat #b00000 (bvadd #xf (bvmul #xf M7) N7)) a!10))
           (a!19 (= (concat #b00000 (bvadd (bvmul #xf M7) N7)) a!18)))
     (let ((a!17 (or (not (= ((_ extract 31 31) C6) #b0))
                     (not ((_ bit2bool 0) B5))
                     (not (= X2 #b0))
                     (= ((_ extract 26 25) C6) #b10)
                     (not (= Z2 #b1))
                     (= N7 (bvadd #x1 M7))
                     a!11)))
     (let ((a!20 (and (or (not (= S4 #b0)) (not (= F8 #b1)) a!2)
                      (= O3 #b0)
                      (or (= Y4 #b0) (= V #b1))
                      (or (not ((_ bit2bool 0) M1)) (= X6 #b0))
                      (or ((_ bit2bool 0) V1)
                          (not (= W2 #b0))
                          (not ((_ bit2bool 0) C4)))
                      (or (not (= X7 #b1)) (not (= Z2 #b1)))
                      (or (not ((_ bit2bool 0) M1)) (not ((_ bit2bool 0) S1)))
                      (or (not (= X7 #b1)) (not (= P2 #b1)))
                      (or (not (= G1 #b1)) (not (= Z2 #b1)))
                      (or (not (= G1 #b1)) (not (= P2 #b1)))
                      (or (not (= Z5 #b1)) (not (= Z1 #b0)))
                      (or ((_ bit2bool 4) W1)
                          ((_ bit2bool 0) V1)
                          (not ((_ bit2bool 0) C4))
                          (not ((_ bit2bool 0) A2)))
                      (or (= X2 #b0)
                          (not (= G1 #b1))
                          (= ((_ extract 0 0) T6) #b1))
                      (or (= T6 #b000000)
                          (not (= Z2 #b1))
                          (not ((_ bit2bool 0) A2)))
                      (or (= T6 #b000000) (= X2 #b0) (not (= X6 #b1)))
                      (or (not (= A6 #b1))
                          (not (= X2 #b1))
                          (not ((_ bit2bool 0) S1)))
                      (or (= X2 #b0)
                          ((_ bit2bool 4) W1)
                          ((_ bit2bool 0) V1)
                          (not ((_ bit2bool 0) C4)))
                      (or ((_ bit2bool 0) R1) (not ((_ bit2bool 0) M1)))
                      (or ((_ bit2bool 0) Q4)
                          (not ((_ bit2bool 0) V))
                          (not (= Z2 #b1)))
                      (or (= ((_ extract 3 1) U2) #b111)
                          (not ((_ bit2bool 6) U2))
                          (not (= X2 #b1)))
                      (or (not (= X6 #b1)) (not (= P2 #b1)))
                      (or ((_ bit2bool 3) S2) (not (= X6 #b1)))
                      (or (not (= M5 #b1)) (not (= X6 #b1)))
                      (or (= Q6 #b0) (= V #b1))
                      (or (not (= P7 #b1)) (not (= Z2 #b1)))
                      (or (not (= X2 #b1))
                          (not ((_ bit2bool 0) S1))
                          (not (= A1 #b1)))
                      (or (not (= P2 #b0))
                          (not (= X2 #b1))
                          (not (= A1 #b1))
                          (not ((_ bit2bool 0) A2))
                          (not ((_ bit2bool 0) R1)))
                      (or (= ((_ extract 26 25) H3) #b10)
                          (not (= X2 #b1))
                          (not ((_ bit2bool 0) A2))
                          (not ((_ bit2bool 0) R1))
                          (not ((_ bit2bool 0) J2)))
                      (or (= ((_ extract 26 25) H3) #b10)
                          (not (= A6 #b1))
                          (not ((_ bit2bool 0) A2))
                          (not ((_ bit2bool 0) R1)))
                      (or (= M4 #b0) (not (= Z2 #b1)) (not ((_ bit2bool 0) M1)))
                      (or (not (= T6 #b000000))
                          (not ((_ bit2bool 0) M5))
                          (not (= Z2 #b1)))
                      (or (= ((_ extract 3 1) W1) #b111)
                          (not ((_ bit2bool 6) W1)))
                      (or ((_ bit2bool 4) W1)
                          ((_ bit2bool 25) H3)
                          (not ((_ bit2bool 1) U2))
                          (not ((_ bit2bool 2) U2))
                          (not ((_ bit2bool 3) U2))
                          (= ((_ extract 30 27) H3) #xe)
                          (= ((_ extract 4 0) U2) #b01111)
                          (not (= Z2 #b1))
                          (not ((_ bit2bool 0) A2)))
                      (not (= O4 #b1))
                      (or ((_ bit2bool 0) N2)
                          (not ((_ bit2bool 31) M6))
                          (not (= R5 #b1))
                          (= ((_ extract 31 24) M6) #xff))
                      (or (= M4 #b0)
                          (not (= Z2 #b1))
                          (not ((_ bit2bool 23) H3)))
                      (or (not ((_ bit2bool 0) M1)) (not (= A8 #b0)))
                      (or (not (= I7 #b1)) (not (= X2 #b1)))
                      (or (not ((_ bit2bool 0) M1)) (= T6 #b000000))
                      (or (not (= D6 #b1))
                          ((_ bit2bool 31) C6)
                          (not (= X2 #b1)))
                      (or ((_ bit2bool 31) H3) (= X6 #b0))
                      (or ((_ bit2bool 0) X6)
                          (not (= Z2 #b1))
                          (not ((_ bit2bool 31) H3))
                          (not ((_ bit2bool 0) A2))
                          (not (= A1 #b0)))
                      (or (not (= Z2 #b1))
                          (not ((_ bit2bool 0) M1))
                          (not ((_ bit2bool 26) H3)))
                      (or (not (= C4 #b0))
                          ((_ bit2bool 0) V1)
                          (= ((_ extract 4 0) U2) #b01111)
                          (not (= Z2 #b1))
                          (not ((_ bit2bool 0) M1)))
                      (or (not (= J7 #b1))
                          (not ((_ bit2bool 0) W1))
                          (not (= Z2 #b1))
                          (not ((_ bit2bool 0) M1)))
                      (or (not (= Y3 #b1)) (not (= J2 #b0)))
                      (or (not (= M1 #b0))
                          (not (= A8 #b1))
                          (not ((_ bit2bool 0) A2)))
                      (or (not (= A6 #b1)) (not (= X6 #b1)))
                      (or ((_ bit2bool 4) U2)
                          (not ((_ bit2bool 3) G8))
                          (not ((_ bit2bool 2) G8))
                          (not ((_ bit2bool 1) G8))
                          (not ((_ bit2bool 0) U2))
                          (= ((_ extract 4 0) G8) #b01111))
                      (or (not (= Z2 #b1)) (not ((_ bit2bool 0) I7)))
                      a!3
                      a!4
                      a!5
                      a!6
                      (or ((_ bit2bool 25) H3)
                          (not (= W2 #b0))
                          (not ((_ bit2bool 4) W1))
                          (not (= Z2 #b1)))
                      (or (not ((_ bit2bool 0) M2)) (not (= Y3 #b1)))
                      (or (not (= C4 #b0))
                          ((_ bit2bool 25) H3)
                          (= V1 #b1)
                          (not ((_ bit2bool 4) W1))
                          (not (= Z2 #b1)))
                      (or ((_ bit2bool 25) H3)
                          (not (= Z2 #b1))
                          (not (= Z5 #b1)))
                      (or (= Z3 #b0) (= N8 #b1) (not (= C4 #b0)))
                      (or ((_ bit2bool 0) V1) (not ((_ bit2bool 0) M5)))
                      (or (= T6 #b000000) (= M4 #b0) (not (= Z2 #b1)))
                      (or ((_ bit2bool 25) H3) (= M4 #b0) (not (= Z2 #b1)))
                      (or (= ((_ extract 3 1) U2) #b111)
                          (not (= A6 #b1))
                          (not (= Z2 #b1)))
                      a!7
                      (or (not ((_ bit2bool 0) F8)) (not (= Q3 #b0)))
                      (or (not (= Q3 #b0)) (= E5 #b0))
                      (or (not (= Q3 #b0)) a!8)
                      (or (not (= X7 #b1)) (= Q3 #b0))
                      (or (not ((_ bit2bool 0) P3)) (not (= B7 #b1)))
                      (or (not (= A6 #b1)) (not (= A8 #b1)))
                      a!9
                      (or (= ((_ extract 3 1) U2) #b111)
                          (= V1 #b1)
                          (not (= Z2 #b1))
                          (= C4 #b1)
                          (not ((_ bit2bool 0) S1)))
                      (or (not (= N3 #b1)) ((_ bit2bool 0) R1) (not (= Z4 #b1)))
                      (or (not (= G7 #b1)) (not (= Q3 #b1)))
                      (or (not (= S4 #b0)) (not (= B5 #b1)) a!2)
                      (or (not ((_ bit2bool 0) Q4)) (not ((_ bit2bool 0) H7)))
                      (or (not (= R5 #b1)) (not (= R2 #b1)) (not (= Z4 #b1)))
                      (or (not ((_ bit2bool 0) H5)) (not (= Q3 #b1)))
                      (or (not ((_ bit2bool 0) H7)) (= Q3 #b0))
                      (or (not (= D6 #b1))
                          (not ((_ bit2bool 0) B5))
                          (not (= P2 #b1))
                          (not (= X2 #b1))
                          (= N7 (bvadd #x1 M7))
                          a!11)
                      (or (= T6 #b000000)
                          (not ((_ bit2bool 0) F8))
                          (not (= A8 #b1))
                          (not (= X2 #b1))
                          (= N7 (bvadd #x1 M7))
                          a!11)
                      (or (not ((_ bit2bool 0) B5)) (not (= E5 #b0)))
                      (or (not (= P7 #b1)) (not (= P2 #b1)))
                      (or (not (= A8 #b1)) (not (= G1 #b1)))
                      (or (= T6 #b000000)
                          (not (= X6 #b1))
                          (not (= F8 #b1))
                          (= N7 (bvadd #x1 M7)))
                      (or (not (= Q3 #b1)) (= P5 #b0))
                      (or (not ((_ bit2bool 0) F8)) (not (= E5 #b1)))
                      (or ((_ bit2bool 0) F8)
                          (not (= Q3 #b1))
                          (= B5 #b1)
                          (and a!12 a!13))
                      (or (not (= F8 #b1)) (and a!14 a!15))
                      (or (not ((_ bit2bool 0) B5)) (not (= D3 #b00)))
                      (or (= R1 #b0)
                          (= A2 #b0)
                          (= V1 #b1)
                          (not ((_ bit2bool 1) U2))
                          (not ((_ bit2bool 2) U2))
                          (not ((_ bit2bool 3) U2))
                          (= ((_ extract 30 27) H3) #xe)
                          (not ((_ bit2bool 0) C4))
                          (= ((_ extract 4 0) U2) #b11111))
                      (or (not ((_ bit2bool 0) B5))
                          (= X6 #b0)
                          (not (= X2 #b1))
                          (= N7 (bvadd #x1 M7))
                          a!16
                          a!11)
                      (or (not ((_ bit2bool 0) B5)) (and a!14 a!15))
                      (or (not ((_ bit2bool 0) F8))
                          (= Z4 #b0)
                          (= N7 (bvadd #x1 M7))
                          a!11)
                      a!17
                      (or (not (= Q3 #b0)) (= M7 N7))
                      (or (not (= D6 #b1))
                          (not ((_ bit2bool 0) B5))
                          (= X2 #b0)
                          (not (= Z2 #b0))
                          (= N7 (bvadd #x1 M7))
                          a!11)
                      (or (not (= R8 #b1))
                          (not (= P7 #b1))
                          (= ((_ extract 0 0) T6) #b1))
                      (or (= Q3 #b0)
                          ((_ bit2bool 0) Q4)
                          (not ((_ bit2bool 0) V)))
                      (or (= ((_ extract 3 1) U2) #b111)
                          (not ((_ bit2bool 0) B5))
                          (not ((_ bit2bool 6) U2)))
                      (or (= U1 U4) (not (= B5 #b1)) (= N7 (bvadd #x1 M7)) a!11)
                      (or (= P3 #b0) (= S3 #b0))
                      (or (not (= Q3 #b1)) (= S3 #b0))
                      (or (= D3 #b00)
                          (= D3 #b11)
                          (= D6 #b1)
                          (not (= T2 #b1))
                          (not (= R1 #b0))
                          (not (= Z2 #b1))
                          (not (= X2 #b1)))
                      (or (not (= R1 #b0)) (not (= X6 #b1)) (not (= X2 #b1)))
                      (or (not (= M5 #b0)) (not (= P7 #b1)))
                      (or ((_ bit2bool 0) R1)
                          (= N7 (bvadd #xf M7))
                          (not (= Z2 #b1))
                          (not (= X2 #b1))
                          (not (= F8 #b1))
                          a!2)
                      (or (not (= A8 #b1)) (not (= M1 #b0)) (not (= Z2 #b0)))
                      (or (not (= Z2 #b0)) (not (= A2 #b0)) (not (= P2 #b1)))
                      (or (not (= Q3 #b1)) a!19)
                      (or (not (= Z2 #b0))
                          (not (= A6 #b1))
                          (not ((_ bit2bool 0) R1)))
                      (or (= T6 #b000000)
                          (= Z2 #b0)
                          (= N7 (bvadd #xf M7))
                          (not (= X2 #b1))
                          (not (= F8 #b1))
                          a!2))))
       (= (INV!slice!1 A
                       B
                       C
                       D
                       E
                       F
                       G
                       H
                       I
                       J
                       K
                       L
                       M
                       N
                       O
                       P
                       Q
                       R
                       S
                       T
                       U
                       V
                       W
                       X
                       Y
                       Z
                       A1
                       B1
                       C1
                       D1
                       E1
                       F1
                       G1
                       H1
                       I1
                       J1
                       K1
                       L1
                       M1
                       N1
                       O1
                       P1
                       Q1
                       R1
                       S1
                       T1
                       U1
                       V1
                       W1
                       X1
                       Y1
                       Z1
                       A2
                       B2
                       C2
                       D2
                       E2
                       F2
                       G2
                       H2
                       I2
                       J2
                       K2
                       L2
                       M2
                       N2
                       O2
                       P2
                       Q2
                       R2
                       S2
                       T2
                       U2
                       V2
                       W2
                       X2
                       Y2
                       Z2
                       A3
                       B3
                       C3
                       D3
                       E3
                       F3
                       G3
                       H3
                       I3
                       J3
                       K3
                       L3
                       M3
                       N3
                       O3
                       P3
                       Q3
                       R3
                       S3
                       T3
                       U3
                       V3
                       W3
                       X3
                       Y3
                       Z3
                       A4
                       B4
                       C4
                       D4
                       E4
                       F4
                       G4
                       H4
                       I4
                       J4
                       K4
                       L4
                       M4
                       N4
                       O4
                       P4
                       Q4
                       R4
                       S4
                       T4
                       U4
                       V4
                       W4
                       X4
                       Y4
                       Z4
                       A5
                       B5
                       C5
                       D5
                       E5
                       F5
                       G5
                       H5
                       I5
                       J5
                       K5
                       L5
                       M5
                       N5
                       O5
                       P5
                       Q5
                       R5
                       S5
                       T5
                       U5
                       V5
                       W5
                       X5
                       Y5
                       Z5
                       A6
                       B6
                       C6
                       D6
                       E6
                       F6
                       G6
                       H6
                       I6
                       J6
                       K6
                       L6
                       M6
                       N6
                       O6
                       P6
                       Q6
                       R6
                       S6
                       T6
                       U6
                       V6
                       W6
                       X6
                       Y6
                       Z6
                       A7
                       B7
                       C7
                       D7
                       E7
                       F7
                       G7
                       H7
                       I7
                       J7
                       K7
                       L7
                       M7
                       N7
                       O7
                       P7
                       Q7
                       R7
                       S7
                       T7
                       U7
                       V7
                       W7
                       X7
                       Y7
                       Z7
                       A8
                       B8
                       C8
                       D8
                       E8
                       F8
                       G8
                       H8
                       I8
                       J8
                       K8
                       L8
                       M8
                       N8
                       O8
                       P8
                       Q8
                       R8)
          a!20)))))
     :weight 0))
